0 54 62
1 42 64
2 49 64
3 63 64
4 60 64
5 64 64
6 46 64
7 64 65
8 51 64
9 54 61
10 60 61
11 54 62
12 42 62
13 59 62
14 58 60
15 47 59
16 42 58
17 55 57
18 48 56
19 56 56
20 48 55
21 53 53
22 51 54
23 52 53
24 53 53
25 52 52
26 34 50
27 50 50
28 25 47
29 41 47
30 33 46
31 46 46
32 16 45
33 43 43
34 39 41
35 35 38
36 22 38
37 22 36
38 31 35
39 23 33
40 7 31
41 27 30
42 27 29
43 20 27
44 25 25
45 23 24
46 20 22
47 17 19
48 15 19
49 18 18
50 16 19
51 15 18
52 13 16
53 4 16
54 11 15
55 10 16
56 12 17
57 14 15
58 8 13
59 4 12
60 2 9
61 3 6
62 5 5
63 4 4
64 2 4
65 2 2
66 1 1

